92	81	28	44	27	65	69	88	48	99
23	53	5	23	56	82	96	24	39	60
65	72	31	20	100	33	99	39	83	62
30	52	83	38	74	55	60	31	80	53
80	75	80	7	60	44	72	82	89	52
31	79	81	3	29	22	67	67	13	44
94	23	50	72	89	77	68	3	43	29
14	61	15	63	53	92	84	64	28	19
57	70	26	38	70	20	46	16	72	37
49	5	56	17	38	15	42	28	63	24
